s td 226 12 291
b 1 1 100 139
b 2 21 94 100
b 3 26 38 159
b 4 29 44 100
b 5 33 62 100
b 6 36 100 110
b 7 49 100 276
b 8 55 100 203
b 9 56 100 115
b 10 57 269 288
b 11 60 100 289
b 12 69 100 150
b 13 73 100 185
b 14 15 86 233
b 15 100 132 224
b 16 146 269 273
b 17 100 149 254
b 18 100 177 208
b 19 7 196 269
b 20 100 203 232
b 21 15 117 213
b 22 40 100 220
b 23 40 100 232
b 24 82 100 226
b 25 82 100 232
b 26 7 157 230 269
b 27 157 242 269
b 28 7 157 269
b 29 100 232 254
b 30 91 100 257
b 31 91 100 232
b 32 15 212 263
b 33 100 270 287
b 34 100 232 276
b 35 100 232 287
b 36 100 280 282
b 37 100 287
b 38 7 181 269
b 39 137 269 288
b 40 100 137 182 269
b 41 100 182 188 269
b 42 181 182 188 269
b 43 181 188 269
b 44 83 181 188
b 45 28 99 127 229 234
b 46 38 43 151 159
b 47 48 114 201 265
b 48 15 43 117 278
b 49 15 34 159 212
b 50 15 160 233 241
b 51 2 27 70 122 128 142 155 164 188 198 229 235
b 52 27 70 83 108 122 128 155 164 188 198 229 235
b 53 27 70 83 108 128 140 155 188 198 201 229 235
b 54 13 70 83 108 128 140 184 188 198 201 204 235
b 55 13 70 83 108 128 173 184 188 201 204 235 236
b 56 13 70 83 108 128 173 188 191 201 204 235 236
b 57 13 70 83 128 173 188 191 201 204 235 236 246
b 58 13 70 83 105 128 173 188 191 201 235 236 246
b 59 6 13 70 83 89 105 188 191 201 235 236 246
b 60 6 16 70 83 89 188 191 201 235 246 247 268
b 61 16 59 70 83 89 188 191 201 235 237 247 268
b 62 16 59 70 75 83 163 188 201 235 237 247 268
b 63 16 59 70 75 83 163 188 201 231 235 237
b 64 16 70 75 78 83 163 188 201 231 235 237
b 65 14 30 70 75 78 83 188 201 231 235 237 265
b 66 14 30 61 70 75 78 83 169 188 201 235 265
b 67 14 30 61 70 75 83 169 188 201 209 235 265
b 68 14 30 61 70 83 169 188 195 201 209 235 265
b 69 30 70 83 114 169 188 195 201 209 235 265
b 70 22 30 70 83 114 118 169 188 195 201 209 235
b 71 22 51 70 83 114 118 169 188 195 201 209 235
b 72 22 24 51 70 83 114 118 188 195 201 209 235
b 73 24 51 70 83 114 118 188 195 201 202 209 235
b 74 24 51 70 83 114 118 188 189 201 202 209 235
b 75 24 70 83 114 118 145 188 189 201 202 209 235
b 76 70 83 103 114 118 145 188 189 201 202 211 235
b 77 70 80 83 93 103 118 145 188 189 201 211 235
b 78 70 80 83 93 103 145 188 189 201 211 235 262
b 79 70 80 83 93 103 188 189 201 235 261 262 264
b 80 70 80 83 93 188 189 201 235 248 261 262 264
b 81 23 70 83 93 188 201 235 248 261
b 82 3 23 70 83 93 201 235
b 83 3 70 93 187 235
b 84 70 80 83 188 189 201 235 248 256 261 262 264
b 85 70 83 138 188 189 201 235 248 256 261 262 264
b 86 70 83 138 188 201 235 248 256 262 264 274
b 87 70 83 138 188 201 235 243 252 256 264 272 274
b 88 70 83 123 136 188 201 235 243 252 256 272 274
b 89 70 83 123 136 188 201 235 238 243 255 272 274
b 90 70 83 123 136 148 188 201 235 238 243 255
b 91 70 83 107 123 148 188 201 235 238 243 255
b 92 70 83 92 107 109 148 188 201 235 243 255 281
b 93 9 70 83 92 109 129 148 188 201 235 243 281
b 94 9 70 83 92 109 129 148 188 197 201 235 281
b 95 9 70 83 92 129 148 188 197 201 206 235 281
b 96 9 70 83 84 92 129 188 197 201 206 235 281
b 97 9 52 70 83 84 92 129 188 201 206 215 235
b 98 52 70 83 84 88 129 176 188 201 206 215 235
b 99 52 70 83 88 106 129 176 188 201 206 215 235
b 100 4 52 88 106 129
b 101 52 70 83 88 106 172 176 188 201 206 215 235
b 102 52 70 83 106 141 172 176 188 201 206 215 235
b 103 46 70 83 106 141 172 176 188 201 215 235 267
b 104 20 37 46 70 83 141 176 188 193 201 235 267
b 105 20 37 70 83 141 176 188 193 201 214 235 267
b 106 20 37 70 83 101 176 188 193 201 214 235 267
b 107 20 37 58 70 83 101 188 201 214 235 253 267
b 108 20 58 70 77 83 175 188 201 214 235 253 259
b 109 20 31 70 77 83 175 188 201 214 235 253 259
b 110 31 70 77 83 175 183 188 201 214 235 253 259
b 111 31 68 70 77 83 175 183 188 201 214 235 253
b 112 31 67 68 70 77 83 175 183 188 201 214 235
b 113 31 67 68 70 83 175 180 183 188 190 201 235
b 114 18 31 70 83 144 175 180 183 188 190 201 235
b 115 18 70 83 102 130 144 175 188 190 201 225 235
b 116 18 70 71 83 102 130 144 175 188 201 225 235
b 117 70 71 83 102 130 144 175 188 201 221 225 235
b 118 65 70 71 83 102 130 175 188 201 221 225 235
b 119 32 65 70 71 83 102 175 188 201 221 225 235
b 120 32 65 70 71 83 95 188 201 221 225 235 244
b 121 32 65 70 83 95 98 188 201 221 225 235 244
b 122 32 70 83 95 98 188 201 225 235 244 251
b 123 19 32 53 70 83 95 98 188 201 225 235 251
b 124 19 25 53 70 83 95 98 188 201 235 251
b 125 19 25 53 70 83 95 98 188 201 235 284
b 126 19 25 70 83 90 95 98 188 201 235 284
b 127 19 25 54 70 83 90 95 98 188 235 284
b 128 12 19 25 54 70 83 90 98 188 235 284
b 129 12 54 70 83 90 98 188 235 245 258 284
b 130 54 70 83 90 98 188 235 245 258 260 284
b 131 54 70 83 90 98 151 188 235 245 258 260
b 132 70 83 90 98 121 151 188 235 258 260
b 133 70 83 98 121 151 188 235 258 260 278
b 134 70 83 98 121 151 188 200 235 260 278
b 135 34 70 83 121 151 188 200 235 260 278
b 136 34 41 70 83 151 161 188 200 235 278
b 137 34 41 43 151 159 161 188 200 235 278
b 138 15 34 41 43 159 161 188 200 278
b 139 15 41 43 160 188 200
b 140 15 41 160 188 241
b 141 41 70 83 161 179
b 142 83 87 90 121 235
b 143 12 70 90 168 188 235 245 258
b 144 63 70 90 168 188 235 245
b 145 19 32 53 70 83 96 188 225 235 251
b 146 19 32 53 70 96 186 188 225 235
b 147 19 70 96 186 188 225 235 271
b 148 19 171 188 225 271
b 149 65 98 221 244 249
b 150 65 71 95 167 244
b 151 32 65 102 154 175
b 152 65 70 83 102 130 174 188 201 235
b 153 70 79 102 130 174 188 235
b 154 65 83 174 188 194
b 155 18 71 102 130 210
b 156 81 102 130 190 225
b 157 18 31 144 180 183 188 290
b 158 39 67 68 180 183 190 235
b 159 70 74 77 83 183 188 235 259
b 160 70 74 83 183 286
b 161 20 31 50 77 259
b 162 42 58 77 175 259
b 163 37 58 101 156 188 253 267
b 164 37 70 83 126 141 188 193 201 214 235
b 165 37 70 83 126 178 188 193 201 235
b 166 70 112 126 178 188 193 235
b 167 20 37 46 143 193 235
b 168 20 35 37 143 235
b 169 45 46 106 172 188 215 267
b 170 52 70 83 141 172 188 206 235 279
b 171 52 70 83 119 172 188 235 279
b 172 70 83 119 172 216
b 173 52 141 166 206 279
b 174 52 84 88 125 176
b 175 9 52 92 215 266
b 176 9 133 148 197 206
b 177 9 70 83 109 188 197 201 205 235
b 178 70 83 109 201 205 227
b 179 9 109 129 188 243 285
b 180 72 109 188 243 285
b 181 92 107 109 223 235 255 281
b 182 47 70 83 188 235 238 255 272 274
b 183 47 83 188 199 235 238 255 274
b 184 47 83 153 188 199 235 238
b 185 165 199 238 255 274
b 186 123 136 188 252 256 272 291
b 187 138 147 235 243 252 264 272
b 188 131 138 189 248 261
b 189 10 80 248 256 261
b 190 17 93 103 261 264
b 191 11 93 145 211 262
b 192 80 93 118 192 211
b 193 83 103 114 188 202 211 235 250
b 194 8 103 202 211 235 250
b 195 8 64 103 202 211
b 196 22 24 70 114 188 235 240
b 197 61 78 83 169 188 228 235 265
b 198 61 78 124 169 228
b 199 61 83 188 228 235 265 277
b 200 14 30 70 111 188 231 237 265
b 201 14 30 111 113 188 231 237
b 202 70 75 83 163 170 188 235 247 268
b 203 70 83 85 163 170 188 235 268
b 204 76 83 85 163 170 188 235
b 205 59 89 97 191 235 237 268
b 206 6 16 188 246 247 268 275
b 207 6 13 89 105 120 188 236
b 208 108 173 191 235 236 283
b 209 152 191 235 236 283
b 210 70 83 104 184 201 236
b 211 13 140 158 184 198 204 235
b 212 27 70 83 116 140 155 188 201 229 235
b 213 27 70 83 116 188 201 218 229 235
b 214 83 116 162 188 218 229 235
b 215 116 140 155 222 229
b 216 66 83 108 122 155 164 188 235
b 217 66 83 122 155 188 207 235
b 218 2 5 27 70 122 128 142 155 188 198 229 235
b 219 2 5 27 142 155 188 198 229 234 235
b 220 2 27 99 142 155 188 198 229 234
b 221 99 127 142 155 198 229 234
b 222 127 135 142 155 198
b 223 5 70 122 128 134 142 155 188 235
b 224 5 128 134 155 188 239
b 225 5 134 188 219 239
b 226 2 142 155 164 217
1 41
2 41
3 46
4 41
5 41
6 41
7 34
8 20
9 41
10 39
11 41
12 41
13 41
14 50
15 41
16 43
17 29
18 41
19 38
20 35
21 48
22 23
23 35
24 25
25 35
26 28
27 28
28 38
29 35
30 31
31 35
32 49
33 37
34 35
35 37
36 41
37 41
38 43
39 40
40 41
41 42
42 43
43 44
44 52
45 221
46 137
47 69
48 138
49 138
50 140
51 52
51 218
51 226
52 53
52 216
53 54
53 212
54 55
54 211
55 56
55 210
56 57
56 208
57 58
58 59
59 60
59 207
60 61
60 206
61 62
61 205
62 63
62 202
63 64
64 65
65 66
65 200
66 67
66 197
67 68
68 69
69 70
70 71
71 72
72 73
72 196
73 74
74 75
75 76
76 77
76 193
77 78
77 192
78 79
78 191
79 80
79 190
80 81
80 84
81 82
82 83
84 85
84 189
85 86
85 188
86 87
87 88
87 187
88 89
88 186
89 90
89 182
90 91
91 92
92 93
92 181
93 94
93 179
94 95
94 177
95 96
95 176
96 97
97 98
97 175
98 99
98 174
99 100
99 101
101 102
102 103
102 170
103 104
103 169
104 105
104 167
105 106
105 164
106 107
107 108
107 163
108 109
108 162
109 110
109 161
110 111
110 159
111 112
112 113
113 114
113 158
114 115
114 157
115 116
115 156
116 117
116 155
117 118
118 119
118 152
119 120
119 151
120 121
120 150
121 122
121 149
122 123
123 124
123 145
124 125
125 126
126 127
127 128
128 129
129 130
129 143
130 131
131 132
132 133
132 142
133 134
134 135
135 136
136 137
136 141
137 138
138 139
139 140
143 144
145 146
146 147
147 148
152 153
152 154
159 160
164 165
165 166
167 168
170 171
170 173
171 172
177 178
179 180
182 183
183 184
183 185
193 194
194 195
197 198
197 199
200 201
202 203
203 204
208 209
212 213
212 215
213 214
216 217
218 219
218 223
219 220
220 221
221 222
223 224
224 225
